examples/mpec/ampl.col
x1
x2
c$cvar
